
;this file is automatically generated: Mon Nov 02 10:43:04 CST 2020

;declarations generated

(declare-fun oclExcludes ( Int Int) Bool)
(declare-fun type_9582b790_eafe_4aa8_9432_996d0ddbd874_Class4 ( Int) Bool)
(declare-fun type_9582b790_eafe_4aa8_9432_996d0ddbd874_Class5 ( Int) Bool)
(declare-fun type_9582b790_eafe_4aa8_9432_996d0ddbd874_Class6 ( Int) Bool)
(declare-fun type_9582b790_eafe_4aa8_9432_996d0ddbd874_Class7 ( Int) Bool)
(declare-fun type_9582b790_eafe_4aa8_9432_996d0ddbd874_Class0 ( Int) Bool)
(declare-fun type_9582b790_eafe_4aa8_9432_996d0ddbd874_Class1 ( Int) Bool)
(declare-fun type_9582b790_eafe_4aa8_9432_996d0ddbd874_Class2 ( Int) Bool)
(declare-fun type_9582b790_eafe_4aa8_9432_996d0ddbd874_Class3 ( Int) Bool)
(declare-fun type_9582b790_eafe_4aa8_9432_996d0ddbd874_Class8 ( Int) Bool)
(declare-fun type_9582b790_eafe_4aa8_9432_996d0ddbd874_Class9 ( Int) Bool)
(declare-fun Cardinality ( Int) Int)
(declare-fun type_9582b790_eafe_4aa8_9432_996d0ddbd874_Class14 ( Int) Bool)
(declare-fun type_9582b790_eafe_4aa8_9432_996d0ddbd874_Class13 ( Int) Bool)
(declare-fun type_9582b790_eafe_4aa8_9432_996d0ddbd874_Class12 ( Int) Bool)
(declare-fun type_9582b790_eafe_4aa8_9432_996d0ddbd874_Class11 ( Int) Bool)
(declare-fun type_9582b790_eafe_4aa8_9432_996d0ddbd874_Class17 ( Int) Bool)
(declare-fun type_9582b790_eafe_4aa8_9432_996d0ddbd874_Class16 ( Int) Bool)
(declare-fun type_9582b790_eafe_4aa8_9432_996d0ddbd874_Class15 ( Int) Bool)
(declare-fun oclSelect ( Int Bool) Int)
(declare-fun class6_Class6IntAttr2 ( Int) Int)
(declare-fun class6_Class6IntAttr3 ( Int) Int)
(declare-fun Enum0 ( Int) Int)
(declare-fun Enum1 ( Int) Int)
(declare-fun Enum2 ( Int) Int)
(declare-fun container_ ( Int) Int)
(declare-fun obj_3d943439_9476_4b2b_8840_436e5c353533 ( Int) Int)
(declare-fun type_9582b790_eafe_4aa8_9432_996d0ddbd874_Class10 ( Int) Bool)
(declare-fun oclIncludes ( Int Int) Bool)
(declare-fun ObjAt ( Int Int) Int)

;formula(s) generated
(assert (forall ((p Int)) (=> ( type_9582b790_eafe_4aa8_9432_996d0ddbd874_Class6 p )  (and (>= ( Enum0 ( obj_3d943439_9476_4b2b_8840_436e5c353533 p )  )  0) (<= ( Enum0 ( obj_3d943439_9476_4b2b_8840_436e5c353533 p )  )  4)))))
(assert (! (forall ((v Int)) (=> ( type_9582b790_eafe_4aa8_9432_996d0ddbd874_Class6 v )  (= ( Enum0 ( obj_3d943439_9476_4b2b_8840_436e5c353533 v )  )  0))):named l0))
(assert (! (forall ((v Int)) (=> ( type_9582b790_eafe_4aa8_9432_996d0ddbd874_Class6 v )  (= ( Enum0 ( obj_3d943439_9476_4b2b_8840_436e5c353533 v )  )  1))):named l1))
(assert (! (forall ((c6_1 Int)(c6_2 Int)) (=> (and ( type_9582b790_eafe_4aa8_9432_996d0ddbd874_Class6 c6_1 )  ( type_9582b790_eafe_4aa8_9432_996d0ddbd874_Class6 c6_2 ) ) (or (>= ( class6_Class6IntAttr2 ( obj_3d943439_9476_4b2b_8840_436e5c353533 c6_1 )  )  ( class6_Class6IntAttr3 ( obj_3d943439_9476_4b2b_8840_436e5c353533 c6_2 )  ) ) (or (forall ((v Int)) (=> ( type_9582b790_eafe_4aa8_9432_996d0ddbd874_Class6 v )  (not (= ( Enum0 ( obj_3d943439_9476_4b2b_8840_436e5c353533 v )  )  2) ))) (forall ((c6_1 Int)(c6_2 Int)) (=> (and ( type_9582b790_eafe_4aa8_9432_996d0ddbd874_Class6 c6_1 )  ( type_9582b790_eafe_4aa8_9432_996d0ddbd874_Class6 c6_2 ) ) (>= ( class6_Class6IntAttr2 ( obj_3d943439_9476_4b2b_8840_436e5c353533 c6_1 )  )  ( class6_Class6IntAttr3 ( obj_3d943439_9476_4b2b_8840_436e5c353533 c6_2 )  ) ))))))):named l2))
(assert (! (exists ((o Int)) ( type_9582b790_eafe_4aa8_9432_996d0ddbd874_Class0 ( obj_3d943439_9476_4b2b_8840_436e5c353533 o )  ) ):named c0))
(assert (! (exists ((o Int)) ( type_9582b790_eafe_4aa8_9432_996d0ddbd874_Class1 ( obj_3d943439_9476_4b2b_8840_436e5c353533 o )  ) ):named c1))
(assert (! (exists ((o Int)) (and (and ( type_9582b790_eafe_4aa8_9432_996d0ddbd874_Class10 ( obj_3d943439_9476_4b2b_8840_436e5c353533 o )  )  ( type_9582b790_eafe_4aa8_9432_996d0ddbd874_Class14 ( obj_3d943439_9476_4b2b_8840_436e5c353533 o )  ) ) ( type_9582b790_eafe_4aa8_9432_996d0ddbd874_Class16 ( obj_3d943439_9476_4b2b_8840_436e5c353533 o )  ) )):named c2))
(assert (! (exists ((o Int)) ( type_9582b790_eafe_4aa8_9432_996d0ddbd874_Class11 ( obj_3d943439_9476_4b2b_8840_436e5c353533 o )  ) ):named c3))
(assert (! (exists ((o Int)) ( type_9582b790_eafe_4aa8_9432_996d0ddbd874_Class12 ( obj_3d943439_9476_4b2b_8840_436e5c353533 o )  ) ):named c4))
(assert (! (exists ((o Int)) ( type_9582b790_eafe_4aa8_9432_996d0ddbd874_Class13 ( obj_3d943439_9476_4b2b_8840_436e5c353533 o )  ) ):named c5))
(assert (! (exists ((o Int)) ( type_9582b790_eafe_4aa8_9432_996d0ddbd874_Class14 ( obj_3d943439_9476_4b2b_8840_436e5c353533 o )  ) ):named c6))
(assert (! (exists ((o Int)) ( type_9582b790_eafe_4aa8_9432_996d0ddbd874_Class15 ( obj_3d943439_9476_4b2b_8840_436e5c353533 o )  ) ):named c7))
(assert (! (exists ((o Int)) (and ( type_9582b790_eafe_4aa8_9432_996d0ddbd874_Class16 ( obj_3d943439_9476_4b2b_8840_436e5c353533 o )  )  ( type_9582b790_eafe_4aa8_9432_996d0ddbd874_Class14 ( obj_3d943439_9476_4b2b_8840_436e5c353533 o )  ) )):named c8))
(assert (! (exists ((o Int)) ( type_9582b790_eafe_4aa8_9432_996d0ddbd874_Class17 ( obj_3d943439_9476_4b2b_8840_436e5c353533 o )  ) ):named c9))
(assert (! (exists ((o Int)) ( type_9582b790_eafe_4aa8_9432_996d0ddbd874_Class2 ( obj_3d943439_9476_4b2b_8840_436e5c353533 o )  ) ):named c10))
(assert (! (exists ((o Int)) ( type_9582b790_eafe_4aa8_9432_996d0ddbd874_Class3 ( obj_3d943439_9476_4b2b_8840_436e5c353533 o )  ) ):named c11))
(assert (! (exists ((o Int)) ( type_9582b790_eafe_4aa8_9432_996d0ddbd874_Class4 ( obj_3d943439_9476_4b2b_8840_436e5c353533 o )  ) ):named c12))
(assert (! (exists ((o Int)) ( type_9582b790_eafe_4aa8_9432_996d0ddbd874_Class5 ( obj_3d943439_9476_4b2b_8840_436e5c353533 o )  ) ):named c13))
(assert (! (exists ((o Int)) ( type_9582b790_eafe_4aa8_9432_996d0ddbd874_Class6 ( obj_3d943439_9476_4b2b_8840_436e5c353533 o )  ) ):named c14))
(assert (! (exists ((o Int)) ( type_9582b790_eafe_4aa8_9432_996d0ddbd874_Class7 ( obj_3d943439_9476_4b2b_8840_436e5c353533 o )  ) ):named c15))
(assert (! (exists ((o Int)) ( type_9582b790_eafe_4aa8_9432_996d0ddbd874_Class8 ( obj_3d943439_9476_4b2b_8840_436e5c353533 o )  ) ):named c16))
(assert (! (exists ((o Int)) ( type_9582b790_eafe_4aa8_9432_996d0ddbd874_Class9 ( obj_3d943439_9476_4b2b_8840_436e5c353533 o )  ) ):named c17))

 ;end of formula 